# Objective value = 95602
x66 0
x67 0
x68 1
x69 1
x70 0
x71 0
x72 0
x73 1
x74 1
x75 0
x76 1
x77 0
x78 0
x79 1
x80 0
x81 0
x82 1
x83 1
x84 0
x85 1
x86 0
x87 0
x88 1
x89 1
x90 0
x91 1
x92 0
x93 1
x94 0
x95 1
x96 1
x97 0
x98 1
x99 0
x100 1
x101 1
x102 0
x103 1
x104 1
x105 0
x106 1
x107 0
x108 1
x109 1
x110 1
x111 0
x112 1
x113 1
x114 0
x115 1
x116 0
x117 1
x118 1
x119 1
x120 1
x121 0
x122 1
x123 1
x124 0
x125 1
x126 0
x127 1
x128 1
x129 1
x130 1
x131 1
x132 1
x133 0
x134 0
x135 1
x136 0
x137 1
x138 0
x139 0
x140 0
x141 0
x142 0
x143 0
x144 0
x145 1
x146 1
x147 0
x148 1
x149 0
x150 1
x151 1
x152 1
x153 1
x154 1
x155 1
x156 0
x157 1
x158 0
x159 0
x160 1
x161 0
x162 1
x163 0
x164 0
x165 0
x166 0
x167 0
x168 0
x169 1
x170 0
x171 0
x172 1
x173 1
x174 0
x175 1
x176 0
x177 1
x178 1
x179 1
x180 1
x181 1
x182 1
x183 0
x184 1
x185 0
x186 0
x187 1
x188 1
x189 0
x190 1
x191 0
x192 1
x193 1
x194 1
x195 1
x196 1
x197 1
x198 0
x199 1
x200 0
x201 1
x202 0
x203 1
x204 1
x205 0
x206 1
x207 1
x208 1
x209 0
x210 1
x211 1
x212 0
x213 1
x214 1
x215 0
x216 1
x217 0
x218 1
x219 1
x220 0
x221 1
x222 1
x223 1
x224 1
x225 1
x226 1
x227 0
x228 0
x229 1
x230 0
x231 1
x232 0
x233 0
x234 0
x235 0
x236 0
x237 0
x238 1
x239 1
x240 1
x241 1
x242 1
x243 1
x244 1
x245 1
x246 0
x247 1
x248 1
x249 0
x250 0
x251 0
x252 0
x253 1
x254 0
x255 0
x256 0
x257 1
x258 0
x259 0
x260 0
x261 1
x262 1
x263 1
x264 1
x265 1
x266 1
x267 1
x268 1
x269 0
x270 1
x271 0
x272 0
x273 0
x274 1
x275 1
x276 1
x277 0
x278 1
x279 1
x280 1
x281 1
x282 0
x283 1
x284 0
x285 1
x286 0
x287 1
x288 0
x289 1
x290 1
x291 1
x292 0
x293 1
x294 1
x295 1
x296 0
x297 1
x298 0
x299 1
x300 1
x301 0
x302 1
x303 1
x304 1
x305 1
x306 1
x307 0
x308 1
x309 1
x310 1
x311 0
x312 1
x313 0
x314 1
x315 1
x316 1
x317 1
x318 1
x319 0
x320 0
x321 0
x322 0
x323 1
x324 0
x325 0
x326 0
x327 1
x328 0
x329 1
x330 0
x331 0
x332 0
x333 0
x334 0
x335 1
x336 1
x337 1
x338 1
x339 1
x340 0
x341 1
x342 1
x343 1
x344 0
x345 1
x346 0
x347 1
x348 1
x349 1
x350 1
x351 0
x352 1
x353 0
x354 1
x355 0
x356 1
x357 0
x358 0
x359 0
x360 0
x361 0
x362 1
x363 0
x364 1
x365 0
x366 0
x367 0
x368 0
x369 1
x370 0
x371 0
x372 1
x373 1
x374 1
x375 0
x376 1
x377 1
x378 1
x379 1
x380 1
x381 0
x382 1
x383 0
x384 1
x385 1
x386 1
x387 1
x388 0
x389 1
x390 0
x391 0
x392 0
x393 1
x394 1
x395 0
x396 1
x397 1
x398 1
x399 1
x400 1
x401 0
x402 1
x403 0
x404 1
x405 1
x406 1
x407 1
x408 0
x409 1
x410 0
x411 1
x412 0
x413 1
x414 1
x415 1
x416 0
x417 1
x418 1
x419 1
x420 1
x421 1
x422 0
x423 1
x424 0
x425 1
x426 1
x427 1
x428 1
x429 0
x430 1
x431 0
x432 1
x433 1
x434 1
x435 0
x436 0
x437 1
x438 0
x439 1
x440 0
x441 0
x442 0
x443 1
x444 0
x445 0
x446 1
x447 1
x448 0
x449 1
x450 1
x451 1
x452 1
x453 1
x454 0
x455 0
x456 0
x457 0
x458 1
x459 1
x460 0
x461 1
x462 1
x463 1
x464 1
x465 1
x466 0
x467 1
x468 0
x469 1
x470 0
x471 1
x472 1
x473 0
x474 1
x475 1
x476 1
x477 1
x478 1
x479 0
x480 1
x481 0
x482 1
x483 1
x484 0
x485 1
x486 0
x487 1
x488 1
x489 1
x490 1
x491 1
x492 0
x493 1
x494 1
x495 0
x496 1
x497 1
x498 1
x499 0
x500 1
x501 0
x502 1
x503 1
x504 1
x505 1
x506 1
x507 0
x508 1
x509 1
x510 0
x511 1
x512 1
x513 1
x514 1
x515 1
x516 1
x517 1
x518 0
x519 0
x520 0
x521 0
x522 0
x523 1
x524 0
x525 0
x526 1
x527 0
x528 0
x529 0
x530 0
x531 0
x532 0
x533 1
x534 0
x535 1
x536 1
x537 1
x538 0
x539 1
x540 0
x541 1
x542 1
x543 0
x544 1
x545 1
x546 1
x547 1
x548 1
x549 0
x550 0
x551 1
x552 1
x553 1
x554 0
x555 1
x556 1
x557 1
x558 0
x559 1
x560 0
x561 0
x562 1
x563 1
x564 1
x565 1
x566 1
x567 0
x568 1
x569 1
x570 0
x571 0
x572 0
x573 1
x574 1
x575 0
x576 0
x577 1
x578 0
x579 0
x580 1
x581 0
x582 0
x583 0
x584 0
x585 0
x586 1
x587 0
x588 0
x589 0
x590 1
x591 1
x592 1
x593 0
x594 1
x595 1
x596 1
x597 0
x598 1
x599 1
x600 0
x601 1
x602 1
x603 1
x604 1
x605 1
x606 0
x607 1
x608 1
x609 0
x610 0
x611 1
x612 1
x613 1
x614 0
x615 1
x616 1
x617 1
x618 0
x619 1
x620 1
x621 0
x622 1
x623 1
x624 1
x625 1
x626 1
x627 0
x628 1
x629 1
x630 0
x631 1
x632 0
x633 1
x634 1
x635 0
x636 1
x637 1
x638 1
x639 0
x640 1
x641 1
x642 1
x643 0
x644 1
x645 1
x646 1
x647 1
x648 1
x649 0
x650 1
x651 1
x652 0
x653 1
x654 1
x655 0
x656 1
x657 1
x658 0
x659 1
x660 1
x661 1
x662 0
x663 1
x664 1
x665 1
x666 0
x667 1
x668 1
x669 1
x670 1
x671 1
x672 0
x673 1
x674 1
x675 0
x676 1
x677 1
x678 1
x679 0
x680 1
x681 1
x682 0
x683 1
x684 1
x685 0
x686 0
x687 1
x688 1
x689 1
x690 0
x691 1
x692 1
x693 1
x694 1
x695 1
x696 0
x697 1
x698 1
x699 0
x700 1
x701 1
x702 1
x703 1
x704 1
x705 1
x706 0
x707 1
x708 0
x709 0
x710 0
x711 1
x712 0
x713 0
x714 0
x715 1
x716 0
x717 0
x718 0
x719 0
x720 0
x721 1
x722 0
x723 0
x724 1
x725 0
x726 0
x727 0
x728 0
x729 0
x730 0
x731 1
x732 1
x733 0
x734 1
x735 0
x736 1
x737 1
x738 1
x739 0
x740 1
x741 0
x742 1
x743 1
x744 1
x745 1
x746 1
x747 1
x748 0
x749 0
x750 1
x751 0
x752 0
x753 0
x754 0
x755 0
x756 1
x757 1
x758 1
x759 0
x760 0
x761 0
x762 1
x763 0
x764 0
x765 0
x766 1
x767 1
x768 0
x769 1
x770 1
x771 1
x772 1
x773 1
x774 0
x775 1
x776 0
x777 1
x778 1
x779 1
x780 1
x781 1
x782 1
x783 0
x784 0
x785 1
x786 1
x787 0
x788 1
x789 1
x790 1
x791 1
x792 1
x793 0
x794 1
x795 0
x796 1
x797 1
x798 1
x799 1
x800 0
x801 1
x802 0
x803 1
x804 0
x805 1
x806 0
x807 1
x808 1
x809 1
x810 1
x811 1
x812 0
x813 1
x814 1
x815 1
x816 1
x817 0
x818 1
x819 1
x820 1
x821 1
x822 0
x823 1
x824 1
x825 0
x826 1
x827 0
x828 1
x829 1
x830 1
x831 1
x832 1
x833 0
x834 1
x835 1
x836 1
x837 1
x838 0
x839 1
x840 0
x841 1
x842 1
x843 0
x844 1
x845 1
x846 1
x847 0
x848 0
x849 0
x850 1
x851 1
x852 1
x853 1
x854 1
x855 0
x856 1
x857 1
x858 1
x859 1
x860 0
x861 1
x862 1
x863 1
x864 1
x865 0
x866 1
x867 1
x868 1
x869 1
x870 1
x871 0
x872 1
x873 0
x874 0
x875 0
x876 1
x877 0
x878 1
x879 0
x880 0
x881 0
x882 0
x883 1
x884 0
x885 0
x886 1
x887 0
x888 1
x889 0
x890 0
x891 0
x892 0
x893 0
x894 1
x895 0
x896 0
x897 0
x898 1
x899 0
x900 0
x901 0
x902 1
x903 0
x904 1
x905 1
x906 0
x907 0
x908 1
x909 0
x910 0
x911 0
x912 1
x913 0
x914 0
x915 0
x916 0
x917 0
x918 1
x919 0
x920 1
x921 1
x922 1
x923 0
x924 0
x925 1
x926 1
x927 0
x928 1
x929 1
x930 1
x931 1
x932 1
x933 0
x934 1
x935 1
x936 1
x937 0
x938 1
x939 1
x940 1
x941 1
x942 1
x943 0
x944 0
x945 0
x946 1
x947 1
x948 1
x949 0
x950 1
x951 1
x952 1
x953 0
x954 1
x955 1
x956 1
x957 0
x958 1
x959 0
x960 1
x961 1
x962 1
x963 0
x964 1
x965 1
x966 1
x967 1
x968 1
x969 0
x970 0
x971 1
x972 0
x973 1
x974 1
x975 1
x976 0
x977 1
x978 1
x979 1
x980 0
x981 1
x982 1
x983 1
x984 1
x985 1
x986 0
x987 1
x988 1
x989 1
x990 0
x991 1
x992 1
x993 1
x994 1
x995 1
x996 0
x997 0
x998 1
x999 1
x1000 0
x1001 1
x1002 1
x1003 0
x1004 1
x1005 1
x1006 1
x1007 0
x1008 1
x1009 1
x1010 1
x1011 0
x1012 1
x1013 1
x1014 1
x1015 1
x1016 0
x1017 1
x1018 0
x1019 1
x1020 1
x1021 1
x1022 1
x1023 1
x1024 0
x1025 0
x1026 1
x1027 1
x1028 1
x1029 0
x1030 1
x1031 1
x1032 0
x1033 1
x1034 1
x1035 1
x1036 0
x1037 1
x1038 1
x1039 1
x1040 1
x1041 1
x1042 1
x1043 1
x1044 1
x1045 0
x1046 1
x1047 0
x1048 1
x1049 1
x1050 1
x1051 1
x1052 1
x1053 0
x1054 0
x1055 1
x1056 1
x1057 1
x1058 1
x1059 1
x1060 0
x1061 0
x1062 1
x1063 0
x1064 0
x1065 1
x1066 1
x1067 0
x1068 0
x1069 0
x1070 0
x1071 1
x1072 0
x1073 0
x1074 0
x1075 1
x1076 0
x1077 1
x1078 0
x1079 0
x1080 0
x1081 0
x1082 0
x1083 1
x1084 1
x1085 0
x1086 0
x1087 0
x1088 0
x1089 0
x1090 0
x1091 0
x1092 1
x1093 0
x1094 1
x1095 1
x1096 1
x1097 0
x1098 1
x1099 1
x1100 1
x1101 1
x1102 1
x1103 1
x1104 1
x1105 1
x1106 0
x1107 1
x1108 0
x1109 1
x1110 1
x1111 1
x1112 1
x1113 1
x1114 0
x1115 0
x1116 1
x1117 1
x1118 1
x1119 1
x1120 1
x1121 0
x1 1
x2 0
x3 0
x4 1
x5 0
x6 1
x7 0
x8 0
x9 0
x10 0
x11 0
x12 0
x13 1
x14 0
x15 1
x16 0
x17 0
x18 0
x19 0
x20 0
x21 1
x22 0
x23 1
x24 0
x25 0
x26 0
x27 0
x28 1
x29 0
x30 1
x31 0
x32 0
x33 0
x34 1
x35 0
x36 0
x37 0
x38 0
x39 0
x40 1
x41 0
x42 0
x43 1
x44 0
x45 0
x46 0
x47 0
x48 0
x49 1
x50 0
x51 1
x52 0
x53 0
x54 0
x55 0
x56 0
x57 1
x58 1
x59 0
x60 0
x61 0
x62 0
x63 0
x64 1
x65 0
